c read Graph
c width = 156
c time = 184 ms
c width = 17
c time = 366 ms
c width = 16
c time = 529 ms
c width = 15
c time = 892 ms
c width = 14
c time = 1213 ms
c width = 13
c time = 9780 ms
c width = 13
c time = 10934 ms
s td 153 14 169
b 1 1 2 14
b 2 2 3 14 15
b 3 11 12 25 26
b 4 3 14 15 27
b 5 11 25 26 39
b 6 131 144 145 158
b 7 143 155 156 168
b 8 131 145 158 159
b 9 143 155 167 168
b 10 3 4 5 17
b 11 3 5 16 17 28 40
b 12 5 16 17 28 30 40 42
b 13 16 28 29 30 42
b 14 5 17 28 30 40 42 54
b 15 28 40 41 42 54
b 16 5 17 30 40 42 54 66
b 17 5 17 19 30 31 42 54 66
b 18 5 19 30 31 42 44 54 56 66
b 19 30 42 43 44 56
b 20 5 19 31 42 44 54 56 66 68
b 21 5 19 31 44 54 56 66 68 80
b 22 54 66 67 68 80
b 23 42 54 55 56 68
b 24 5 17 18 19 31
b 25 40 53 54 66
b 26 3 16 27 28 40
b 27 3 15 16 27 28
b 28 5 6 19 31 44 56 66 68 80
b 29 6 7 19 31 44 56 66 68 80
b 30 7 8 19 20 31 44 56 66 68 80
b 31 8 9 19 20 21 31 44 56 66 68 80
b 32 9 19 20 21 31 32 44 56 66 68 80
b 33 9 20 21 31 32 33 44 56 66 68 80
b 34 9 21 32 33 44 45 56 66 68 80
b 35 9 21 33 35 44 45 46 47 56 66 68 80
b 36 9 21 35 44 45 46 47 56 57 66 68 80
b 37 9 21 35 45 46 47 56 57 58 66 68 80
b 38 9 21 35 46 47 56 57 58 59 66 68 80
b 39 9 21 35 47 48 56 57 58 59 60 66 68 80
b 40 9 21 35 48 56 57 58 59 60 66 68 69 80
b 41 9 21 35 48 57 58 59 60 66 68 69 70 80
b 42 9 21 35 48 58 59 60 66 68 69 70 71 80
b 43 9 21 35 48 59 60 66 68 69 70 71 72 80
b 44 9 21 35 48 60 66 68 69 70 71 72 79 80
b 45 9 21 35 48 60 68 69 70 71 72 79 80 81
b 46 9 21 35 48 60 69 70 71 72 79 80 81 82
b 47 9 21 35 48 60 70 71 72 79 80 81 82 83
b 48 9 21 35 48 60 71 72 79 80 81 82 83 84
b 49 9 21 35 48 60 72 73 79 80 81 82 83 84 85
b 50 9 21 35 48 60 73 79 80 81 82 83 84 85 92
b 51 9 21 35 48 60 73 80 81 82 83 84 85 92 93
b 52 9 21 35 48 60 73 81 82 83 84 85 92 93 94
b 53 9 21 35 48 60 73 82 83 84 85 92 93 94 95
b 54 9 21 35 48 60 73 83 84 85 92 93 94 95 96
b 55 9 21 35 48 60 73 84 85 92 93 94 95 96 97
b 56 9 21 35 48 60 73 85 92 93 94 95 96 97 105
b 57 9 21 35 48 60 73 85 93 94 95 96 97 105 106
b 58 9 21 35 48 60 73 85 94 95 96 97 105 106 107
b 59 9 21 35 48 60 73 85 95 96 97 105 106 107 108
b 60 9 21 35 48 60 73 85 96 97 105 106 107 108 109
b 61 9 21 35 48 60 73 85 97 105 106 107 108 109 118
b 62 9 21 35 48 60 73 85 97 106 107 108 109 118 119
b 63 9 21 35 48 60 73 85 97 107 108 109 118 119 120
b 64 9 21 35 48 60 73 85 97 108 109 118 119 120 121
b 65 9 21 35 48 60 73 85 97 109 118 119 120 121 131
b 66 9 21 35 48 60 73 85 97 109 119 120 121 131 132
b 67 9 21 35 48 60 73 85 97 109 120 121 131 132 133
b 68 9 21 35 48 60 73 85 97 109 121 131 132 133 145
b 69 9 21 35 48 60 73 85 97 109 121 131 133 145 159
b 70 9 21 35 48 60 73 85 97 109 121 133 145 146 159
b 71 9 21 35 48 60 73 85 97 109 121 133 134 146 159
b 72 9 21 35 48 60 73 85 97 109 121 122 134 146 159
b 73 9 21 35 48 60 73 85 97 109 110 122 134 146 159
b 74 9 21 35 48 60 73 85 97 98 110 122 134 146 159
b 75 9 21 35 48 60 73 85 86 98 110 122 134 146 159
b 76 9 21 35 48 60 73 74 86 98 110 122 134 146 159
b 77 9 21 35 48 60 62 74 86 98 110 122 134 146 159
b 78 9 21 35 48 62 74 86 98 110 122 134 146 147 159
b 79 9 21 35 48 62 74 86 98 110 122 134 135 147 159
b 80 9 21 35 48 62 74 86 98 110 122 123 135 147 159
b 81 9 21 35 48 62 74 86 98 110 111 123 135 147 159
b 82 9 21 35 48 62 74 86 98 99 111 123 135 147 159
b 83 9 21 35 48 62 74 86 87 99 111 123 135 147 159
b 84 9 21 35 48 62 74 75 87 99 111 123 135 147 159
b 85 9 21 35 48 62 75 87 99 111 123 135 147 159 160
b 86 9 21 35 48 62 75 87 99 111 123 135 147 148 160
b 87 9 21 35 48 62 75 87 99 111 123 135 136 148 160
b 88 9 21 35 48 62 75 87 99 111 123 124 136 148 160
b 89 9 21 35 48 62 75 87 99 111 112 124 136 148 160
b 90 9 21 35 48 62 75 87 99 100 112 124 136 148 160
b 91 9 21 35 48 62 75 87 88 100 112 124 136 148 160
b 92 9 21 35 48 62 75 76 88 100 112 124 136 148 160
b 93 9 21 35 48 62 76 88 100 112 124 136 148 160 161
b 94 9 21 35 48 62 76 88 100 112 124 136 148 149 161
b 95 9 21 35 48 62 76 88 100 112 124 136 137 149 161
b 96 9 21 35 48 62 76 88 100 112 124 125 137 149 161
b 97 9 21 35 48 62 76 88 100 112 113 125 137 149 161
b 98 9 21 35 48 62 76 88 100 101 113 125 137 149 161
b 99 9 21 35 48 62 76 88 89 101 113 125 137 149 161
b 100 9 21 35 48 62 76 89 101 113 125 137 149 161 162
b 101 9 21 35 48 62 76 89 101 113 125 137 149 150 162
b 102 9 21 35 48 62 76 89 101 113 125 137 138 150 162
b 103 9 21 35 48 62 76 89 101 113 125 126 138 150 162
b 104 9 21 35 48 62 76 89 101 113 114 126 138 150 162
b 105 9 21 35 48 62 76 89 101 102 114 126 138 150 162
b 106 9 21 35 48 62 76 89 90 102 114 126 138 150 162
b 107 9 21 35 48 62 76 78 90 102 114 126 138 150 162
b 108 78 90 102 114 116 126 130 138 150 162
b 109 102 114 116 126 130 138 150 152 162 164
b 110 150 152 162 163 164
b 111 48 60 61 62 74
b 112 9 21 35 48 62 64 76 78 90
b 113 64 76 77 78 90
b 114 9 21 35 48 50 62 64 76 78
b 115 50 62 63 64 76
b 116 9 21 35 36 48 50 62 64 78
b 117 36 48 49 50 62
b 118 9 21 23 35 36 50 64 78
b 119 9 23 36 50 52 64 78
b 120 9 23 36 38 50 52 64
b 121 9 23 24 36 38 50 52
b 122 24 36 37 38 50
b 123 9 11 23 24 38 52
b 124 11 24 38 39 52
b 125 11 24 25 38 39
b 126 9 10 11 23
b 127 38 50 51 52 64
b 128 52 64 65 78
b 129 9 21 22 23 35
b 130 21 33 34 35 47
b 131 102 114 116 126 130 138 140 152 164
b 132 126 138 139 140 152
b 133 102 114 116 126 128 130 140 152 164
b 134 116 128 130 140 152 164 166
b 135 116 128 130 140 152 154 166
b 136 140 152 153 154 166
b 137 116 128 130 140 142 154 166
b 138 130 142 154 166 167
b 139 130 142 143 154 167
b 140 142 143 154 155 167
b 141 116 128 129 130 142
b 142 128 140 141 142 154
b 143 152 164 165 166
b 144 114 126 127 128 140
b 145 102 114 115 116 128
b 146 138 150 151 152 164
b 147 78 90 102 104 116 130
b 148 78 90 91 104
b 149 104 116 117 130
b 150 90 102 103 104 116
b 151 156 168 169
b 152 144 157 158
b 153 12 13 26
1 2
2 4
3 153
3 5
4 27
5 125
6 152
6 8
7 151
7 9
8 69
9 140
10 11
11 26
11 12
12 14
12 13
14 16
14 15
16 25
16 17
17 24
17 18
18 20
18 19
20 23
20 21
21 28
21 22
26 27
28 29
29 30
30 31
31 32
32 33
33 34
34 35
35 130
35 36
36 37
37 38
38 39
39 40
40 41
41 42
42 43
43 44
44 45
45 46
46 47
47 48
48 49
49 50
50 51
51 52
52 53
53 54
54 55
55 56
56 57
57 58
58 59
59 60
60 61
61 62
62 63
63 64
64 65
65 66
66 67
67 68
68 69
69 70
70 71
71 72
72 73
73 74
74 75
75 76
76 77
77 111
77 78
78 79
79 80
80 81
81 82
82 83
83 84
84 85
85 86
86 87
87 88
88 89
89 90
90 91
91 92
92 93
93 94
94 95
95 96
96 97
97 98
98 99
99 100
100 101
101 102
102 103
103 104
104 105
105 106
106 107
107 112
107 108
108 147
108 109
109 131
109 146
109 110
112 113
112 114
114 115
114 116
116 117
116 118
118 129
118 119
119 128
119 120
120 127
120 121
121 122
121 123
123 126
123 124
124 125
131 132
131 133
133 145
133 144
133 134
134 143
134 135
135 136
135 137
137 138
137 141
137 142
138 139
139 140
147 148
147 149
147 150
